min: x1 + x2 + x3 + x4 + x5 + x6 + x7;
6 x1 + 4 x2 + 3 x3 + 2 x4 + x5 + x6          >= 300;
         x2        + 2 x4 + x5        + 3 x7 >= 130;
                x3        + x5 + 2 x6        >= 100;
int x1 x2 x3 x4 x5 x6 x7;